50
2 0 1
2 1 1
3 1 1
3 2 1
4 1 1
4 2 1
4 3 1
5 1 1
5 2 1
6 1 1
6 2 1
6 3 1
6 4 1
7 0 1
7 1 1
7 5 1
8 1 1
8 3 1
8 4 1
8 6 1
9 2 1
9 3 1
9 4 1
9 6 1
10 2 1
10 3 1
10 7 1
11 0 1
11 1 1
11 2 1
11 7 1
11 8 1
12 0 1
12 1 1
12 4 1
12 8 1
12 9 1
12 11 1
13 1 1
13 5 1
13 8 1
13 9 1
13 10 1
13 12 1
14 0 1
14 1 1
14 2 1
14 4 1
14 8 1
14 9 1
14 10 1
15 0 1
15 4 1
15 5 1
15 6 1
15 8 1
15 10 1
15 13 1
16 0 1
16 3 1
16 4 1
16 6 1
16 11 1
16 14 1
16 15 1
17 1 1
17 3 1
17 8 1
17 10 1
17 14 1
17 15 1
18 2 1
18 3 1
18 5 1
18 7 1
18 8 1
18 9 1
18 13 1
18 15 1
19 1 1
19 2 1
19 6 1
19 8 1
19 10 1
19 15 1
19 16 1
19 18 1
20 1 1
20 3 1
20 10 1
20 12 1
20 15 1
20 19 1
21 0 1
21 1 1
21 3 1
21 5 1
21 6 1
21 8 1
21 9 1
21 10 1
21 11 1
21 13 1
21 15 1
21 16 1
21 17 1
22 0 1
22 1 1
22 2 1
22 4 1
22 5 1
22 7 1
22 11 1
22 12 1
22 13 1
22 15 1
22 16 1
22 18 1
22 20 1
23 2 1
23 5 1
23 8 1
23 9 1
23 10 1
23 14 1
23 15 1
23 17 1
23 19 1
23 20 1
23 21 1
24 0 1
24 1 1
24 4 1
24 9 1
24 10 1
24 13 1
24 15 1
24 17 1
24 18 1
24 21 1
25 1 1
25 6 1
25 7 1
25 8 1
25 9 1
25 10 1
25 12 1
25 13 1
25 14 1
25 16 1
25 17 1
25 18 1
25 21 1
25 22 1
25 23 1
26 1 1
26 2 1
26 4 1
26 5 1
26 6 1
26 8 1
26 12 1
26 14 1
26 17 1
26 22 1
26 24 1
26 25 1
27 2 1
27 3 1
27 13 1
27 15 1
27 17 1
27 18 1
27 23 1
27 25 1
27 26 1
28 0 1
28 3 1
28 4 1
28 6 1
28 8 1
28 9 1
28 14 1
28 15 1
28 21 1
28 23 1
28 24 1
28 25 1
28 26 1
28 27 1
29 0 1
29 1 1
29 2 1
29 4 1
29 5 1
29 6 1
29 9 1
29 10 1
29 12 1
29 13 1
29 14 1
29 15 1
29 18 1
29 20 1
29 22 1
29 26 1
29 27 1
30 6 1
30 7 1
30 9 1
30 10 1
30 13 1
30 14 1
30 16 1
30 17 1
30 20 1
30 23 1
30 25 1
30 27 1
30 29 1
31 0 1
31 3 1
31 4 1
31 5 1
31 6 1
31 7 1
31 9 1
31 12 1
31 14 1
31 17 1
31 18 1
31 19 1
31 20 1
31 22 1
31 24 1
31 25 1
31 26 1
31 27 1
31 29 1
31 30 1
32 2 1
32 3 1
32 4 1
32 5 1
32 8 1
32 10 1
32 11 1
32 12 1
32 13 1
32 14 1
32 15 1
32 16 1
32 24 1
32 27 1
32 29 1
32 31 1
33 1 1
33 2 1
33 6 1
33 11 1
33 14 1
33 15 1
33 20 1
33 23 1
33 24 1
33 30 1
33 31 1
33 32 1
34 1 1
34 2 1
34 4 1
34 6 1
34 9 1
34 12 1
34 17 1
34 18 1
34 23 1
34 27 1
34 30 1
34 32 1
34 33 1
35 0 1
35 1 1
35 4 1
35 6 1
35 8 1
35 10 1
35 13 1
35 18 1
35 23 1
35 24 1
35 26 1
35 27 1
35 28 1
35 31 1
35 34 1
36 0 1
36 1 1
36 4 1
36 5 1
36 8 1
36 10 1
36 12 1
36 13 1
36 14 1
36 15 1
36 16 1
36 18 1
36 19 1
36 26 1
36 29 1
36 30 1
36 31 1
36 32 1
36 33 1
36 34 1
37 1 1
37 3 1
37 4 1
37 5 1
37 7 1
37 9 1
37 15 1
37 18 1
37 22 1
37 23 1
37 24 1
37 26 1
37 29 1
37 30 1
37 33 1
37 34 1
37 35 1
37 36 1
38 2 1
38 3 1
38 4 1
38 7 1
38 8 1
38 9 1
38 10 1
38 13 1
38 14 1
38 15 1
38 16 1
38 18 1
38 20 1
38 22 1
38 25 1
38 26 1
38 27 1
38 28 1
38 30 1
38 31 1
38 32 1
38 33 1
38 37 1
39 1 1
39 3 1
39 5 1
39 7 1
39 10 1
39 11 1
39 16 1
39 17 1
39 18 1
39 26 1
39 27 1
39 28 1
39 29 1
39 32 1
39 34 1
39 36 1
39 37 1
39 38 1
40 0 1
40 4 1
40 5 1
40 8 1
40 12 1
40 14 1
40 18 1
40 20 1
40 21 1
40 22 1
40 26 1
40 27 1
40 28 1
40 30 1
40 31 1
40 32 1
40 35 1
40 37 1
40 38 1
40 39 1
41 2 1
41 3 1
41 7 1
41 10 1
41 11 1
41 12 1
41 13 1
41 14 1
41 17 1
41 20 1
41 21 1
41 22 1
41 23 1
41 24 1
41 30 1
41 31 1
41 32 1
41 33 1
41 37 1
42 0 1
42 1 1
42 4 1
42 5 1
42 10 1
42 13 1
42 16 1
42 21 1
42 23 1
42 24 1
42 25 1
42 30 1
42 31 1
42 33 1
42 34 1
42 36 1
42 39 1
42 40 1
42 41 1
43 11 1
43 13 1
43 15 1
43 21 1
43 23 1
43 24 1
43 25 1
43 26 1
43 27 1
43 28 1
43 29 1
43 32 1
43 33 1
43 34 1
43 37 1
43 38 1
43 40 1
43 41 1
43 42 1
44 0 1
44 4 1
44 5 1
44 8 1
44 9 1
44 10 1
44 12 1
44 13 1
44 14 1
44 15 1
44 17 1
44 18 1
44 20 1
44 22 1
44 26 1
44 27 1
44 28 1
44 29 1
44 32 1
44 33 1
44 35 1
44 41 1
44 43 1
45 0 1
45 2 1
45 3 1
45 5 1
45 8 1
45 9 1
45 10 1
45 12 1
45 13 1
45 14 1
45 16 1
45 18 1
45 19 1
45 20 1
45 24 1
45 26 1
45 29 1
45 31 1
45 33 1
45 34 1
45 35 1
45 38 1
45 41 1
45 42 1
45 43 1
46 1 1
46 5 1
46 6 1
46 7 1
46 8 1
46 12 1
46 14 1
46 15 1
46 19 1
46 20 1
46 21 1
46 22 1
46 24 1
46 25 1
46 26 1
46 27 1
46 28 1
46 29 1
46 30 1
46 32 1
46 33 1
46 34 1
46 36 1
46 40 1
46 43 1
46 44 1
47 4 1
47 5 1
47 8 1
47 11 1
47 14 1
47 17 1
47 18 1
47 19 1
47 22 1
47 23 1
47 28 1
47 33 1
47 35 1
47 36 1
47 37 1
47 38 1
47 41 1
47 42 1
47 44 1
48 0 1
48 7 1
48 9 1
48 11 1
48 14 1
48 18 1
48 19 1
48 22 1
48 24 1
48 25 1
48 29 1
48 31 1
48 32 1
48 33 1
48 34 1
48 35 1
48 38 1
48 39 1
48 40 1
48 41 1
48 42 1
48 45 1
48 47 1
49 3 1
49 5 1
49 10 1
49 12 1
49 13 1
49 14 1
49 17 1
49 19 1
49 21 1
49 22 1
49 24 1
49 26 1
49 28 1
49 30 1
49 34 1
49 37 1
49 38 1
49 39 1
49 41 1
49 46 1
49 48 1
